p wcnf 157 236 237 
1 -55 -7 0 
1 83 -78 0 
1 -76 54 0 
1 66 11 0 
1 23 59 0 
1 95 -127 0 
1 112 29 0 
1 87 17 0 
1 -51 16 0 
1 -13 154 0 
1 47 127 0 
1 106 83 0 
1 43 94 0 
1 87 -117 0 
1 50 -103 0 
1 -55 5 0 
1 -54 103 0 
1 -40 113 0 
1 -93 -40 0 
1 153 -57 0 
1 46 132 0 
1 -14 -122 0 
1 -70 65 0 
1 -49 -94 0 
1 -148 -47 0 
1 111 136 0 
1 142 47 0 
1 36 76 0 
1 -147 -106 0 
1 54 94 0 
1 116 -61 0 
1 -77 91 0 
1 -156 -73 0 
1 71 -153 0 
1 98 88 0 
1 36 132 0 
1 -95 -131 0 
1 -31 88 0 
1 75 -4 0 
1 81 8 0 
1 -146 -82 0 
1 12 102 0 
1 -40 65 0 
1 -107 -95 0 
1 95 129 0 
1 -123 -18 0 
1 128 -89 0 
1 -32 -101 0 
1 57 -22 0 
1 -43 -5 0 
1 105 148 0 
1 92 45 0 
1 -50 155 0 
1 112 -143 0 
1 15 156 0 
1 130 124 0 
1 139 64 0 
1 150 -32 0 
1 -124 74 0 
1 86 135 0 
1 -19 -7 0 
1 -17 81 0 
1 106 117 0 
1 85 135 0 
1 153 -10 0 
1 89 25 0 
1 -15 114 0 
1 18 61 0 
1 103 -119 0 
1 -3 48 0 
1 152 141 0 
1 -152 133 0 
1 -86 47 0 
1 97 70 0 
1 -68 -18 0 
1 -44 79 0 
1 118 93 0 
1 91 95 0 
1 -128 -150 0 
1 -71 -44 0 
1 -63 -79 0 
1 -30 96 0 
1 -102 -22 0 
1 156 118 0 
1 -136 126 0 
1 19 96 0 
1 101 98 0 
1 132 -75 0 
1 66 21 0 
1 -31 79 0 
1 120 88 0 
1 -4 73 0 
1 12 -35 0 
1 16 -82 0 
1 125 61 0 
1 -140 147 0 
1 122 -86 0 
1 -67 -73 0 
1 123 80 0 
1 -17 49 0 
1 22 148 0 
1 53 77 0 
1 53 104 0 
1 41 122 0 
1 -3 59 0 
1 97 142 0 
1 -69 12 0 
1 -35 -49 0 
1 -112 90 0 
1 37 154 0 
1 -137 -22 0 
1 106 151 0 
1 135 -23 0 
1 -36 -79 0 
1 29 -19 0 
1 59 -138 0 
1 -41 74 0 
1 129 -125 0 
1 102 112 0 
1 25 137 0 
1 -67 142 0 
1 49 -54 0 
1 -69 -72 0 
1 -103 67 0 
1 66 114 0 
1 -124 140 0 
1 -136 78 0 
1 15 44 0 
1 -155 -3 0 
1 58 -57 0 
1 40 -73 0 
1 147 -12 0 
1 44 10 0 
1 33 -107 0 
1 151 19 0 
1 51 -62 0 
1 85 2 0 
1 -9 -89 0 
1 21 105 0 
1 18 47 0 
1 -116 -23 0 
1 -101 153 0 
1 -91 23 0 
1 -23 -70 0 
1 -91 12 0 
1 11 -86 0 
1 -27 -35 0 
1 102 -125 0 
1 -32 135 0 
1 30 2 0 
1 38 61 0 
1 47 -82 0 
1 33 93 0 
1 -106 -56 0 
1 -29 -18 0 
1 101 -122 0 
1 -40 -145 0 
1 -25 1 0 
1 42 -86 0 
1 -67 -18 0 
1 32 85 0 
1 102 133 0 
1 10 -144 0 
1 129 116 0 
1 51 21 0 
1 -155 54 0 
1 70 99 0 
1 44 -95 0 
1 -6 61 0 
1 145 -123 0 
1 -101 104 0 
1 -39 -67 0 
1 -157 -31 0 
1 -77 -58 0 
1 -141 -101 0 
1 -16 -118 0 
1 -85 65 0 
1 -5 44 0 
1 106 -157 0 
1 -29 -51 0 
1 97 -62 0 
1 96 -156 0 
1 109 19 0 
1 114 -33 0 
1 60 -5 0 
1 155 59 0 
1 -88 -133 0 
1 -50 -154 0 
1 122 144 0 
1 -19 -32 0 
1 -98 131 0 
1 -68 30 0 
1 147 93 0 
1 6 91 0 
1 -10 85 0 
1 -99 53 0 
1 -12 100 0 
1 68 152 0 
1 -93 45 0 
1 144 38 0 
1 -154 40 0 
1 56 -81 0 
1 149 -52 0 
1 -9 155 0 
1 29 49 0 
1 60 4 0 
1 132 71 0 
1 -12 5 0 
1 -48 -54 0 
1 13 -45 0 
1 -36 97 0 
1 69 -45 0 
1 105 152 0 
1 -92 79 0 
1 36 -114 0 
1 45 -148 0 
1 74 103 0 
1 148 -131 0 
1 -21 96 0 
1 33 44 0 
1 8 -41 0 
1 20 96 0 
1 52 74 0 
1 -122 -1 0 
1 23 128 0 
1 -133 -72 0 
1 -110 97 0 
1 157 142 0 
1 -36 -13 0 
1 103 -68 0 
1 -102 -130 0 
1 138 -153 0 
1 -34 21 0 
1 -143 42 0 
1 1 35 0 
1 11 -42 0 
